lattice_vector 15 0 0
lattice_vector 0 15 0
lattice_vector 0 0 15
atom      -0.37746385      1.34479666      0.00000000 C
atom       0.97590022      0.99930989     -0.00000000 C
atom       1.35334558     -0.34550038      0.00000000 C
atom       0.37746385     -1.34479666     -0.00000000 C
atom      -0.97590022     -0.99930989     -0.00000000 C
atom      -1.35334558      0.34550038     -0.00000000 C
atom      -0.67213736      2.39456156     -0.00000000 H
atom       1.73769998      1.77937061     -0.00000000 H
atom       2.40980189     -0.61520374     -0.00000000 H
atom       0.67213736     -2.39456156     -0.00000000 H
atom      -1.73769998     -1.77937061      0.00000000 H
atom      -2.40980189      0.61520374     -0.00000000 H
